k-points
10       !10 Steps between each high symmetry point Line Mode
Line Mode
Rec
0 0 0 !G to R
0.5 0.5 0.5
0.5 0.5 0.5 !R to M
0.5 0.5 0
