 Cu2O Bulk 4 Cu 2 O exp cubique
   1.0
 4.27  0.0   0.0 
 0.0   4.27  0.0 
 0.0   0.0   4.27
 Cu O
 4 2
 Direct
 0.0    0.0    0.0
 0.5    0.5    0.0
 0.5    0.0    0.5
 0.0    0.5    0.5
 0.25   0.25   0.25
 0.75   0.75   0.75
